\ENCODING=ISO-8859-1
\Problem name: 

Minimize
 obj: y.0.1 + y.0.2 + y.0.3 + y.0.4 + y.0.5 + y.0.6 + y.0.7 + y.0.8 + y.0.9
      + y.0.10 + y.0.11 + y.0.12 + y.1.2 + y.1.3 + y.1.4 + y.1.5 + y.1.6
      + y.1.7 + y.1.8 + y.1.9 + y.1.10 + y.1.11 + y.1.12 + y.2.3 + y.2.4
      + y.2.5 + y.2.6 + y.2.7 + y.2.8 + y.2.9 + y.2.10 + y.2.11 + y.2.12
      + y.3.4 + y.3.5 + y.3.6 + y.3.7 + y.3.8 + y.3.9 + y.3.10 + y.3.11
      + y.3.12 + y.4.5 + y.4.6 + y.4.7 + y.4.8 + y.4.9 + y.4.10 + y.4.11
      + y.4.12 + y.5.6 + y.5.7 + y.5.8 + y.5.9 + y.5.10 + y.5.11 + y.5.12
      + y.6.7 + y.6.8 + y.6.9 + y.6.10 + y.6.11 + y.6.12 + y.7.8 + y.7.9
      + y.7.10 + y.7.11 + y.7.12 + y.8.9 + y.8.10 + y.8.11 + y.8.12 + y.9.10
      + y.9.11 + y.9.12 + y.10.11 + y.10.12 + y.11.12
Subject To
 c0#0:     x.0.1 + x.1.0  = 0
 c1#1:     x.0.2 + x.2.0  = 0
 c2#2:     x.0.3 + x.3.0  = 0
 c3#3:     x.0.4 + x.4.0  = 0
 c4#4:     x.0.5 + x.5.0  = 0
 c5#5:     x.0.6 + x.6.0  = 0
 c6#6:     x.0.7 + x.7.0  = 0
 c7#7:     x.0.8 + x.8.0  = 0
 c8#8:     x.0.9 + x.9.0  = 0
 c9#9:     x.0.10 + x.10.0  = 1
 c10#10:   x.0.11 + x.11.0  = 0
 c11#11:   x.0.12 + x.12.0  = 0
 c12#12:   x.1.2 + x.2.1  = 1
 c13#13:   x.1.3 + x.3.1  = 0
 c14#14:   x.1.4 + x.4.1  = 0
 c15#15:   x.1.5 + x.5.1  = 0
 c16#16:   x.1.6 + x.6.1  = 0
 c17#17:   x.1.7 + x.7.1  = 0
 c18#18:   x.1.8 + x.8.1  = 0
 c19#19:   x.1.9 + x.9.1  = 0
 c20#20:   x.1.10 + x.10.1  = 0
 c21#21:   x.1.11 + x.11.1  = 0
 c22#22:   x.1.12 + x.12.1  = 0
 c23#23:   x.2.3 + x.3.2  = 1
 c24#24:   x.2.4 + x.4.2  = 1
 c25#25:   x.2.5 + x.5.2  = 0
 c26#26:   x.2.6 + x.6.2  = 1
 c27#27:   x.2.7 + x.7.2  = 0
 c28#28:   x.2.8 + x.8.2  = 1
 c29#29:   x.2.9 + x.9.2  = 0
 c30#30:   x.2.10 + x.10.2  = 0
 c31#31:   x.2.11 + x.11.2  = 1
 c32#32:   x.2.12 + x.12.2  = 1
 c33#33:   x.3.4 + x.4.3  = 0
 c34#34:   x.3.5 + x.5.3  = 0
 c35#35:   x.3.6 + x.6.3  = 0
 c36#36:   x.3.7 + x.7.3  = 0
 c37#37:   x.3.8 + x.8.3  = 0
 c38#38:   x.3.9 + x.9.3  = 0
 c39#39:   x.3.10 + x.10.3  = 0
 c40#40:   x.3.11 + x.11.3  = 0
 c41#41:   x.3.12 + x.12.3  = 0
 c42#42:   x.4.5 + x.5.4  = 0
 c43#43:   x.4.6 + x.6.4  = 0
 c44#44:   x.4.7 + x.7.4  = 0
 c45#45:   x.4.8 + x.8.4  = 0
 c46#46:   x.4.9 + x.9.4  = 0
 c47#47:   x.4.10 + x.10.4  = 0
 c48#48:   x.4.11 + x.11.4  = 0
 c49#49:   x.4.12 + x.12.4  = 0
 c50#50:   x.5.6 + x.6.5  = 0
 c51#51:   x.5.7 + x.7.5  = 0
 c52#52:   x.5.8 + x.8.5  = 0
 c53#53:   x.5.9 + x.9.5  = 0
 c54#54:   x.5.10 + x.10.5  = 1
 c55#55:   x.5.11 + x.11.5  = 0
 c56#56:   x.5.12 + x.12.5  = 0
 c57#57:   x.6.7 + x.7.6  = 0
 c58#58:   x.6.8 + x.8.6  = 0
 c59#59:   x.6.9 + x.9.6  = 0
 c60#60:   x.6.10 + x.10.6  = 0
 c61#61:   x.6.11 + x.11.6  = 0
 c62#62:   x.6.12 + x.12.6  = 0
 c63#63:   x.7.8 + x.8.7  = 0
 c64#64:   x.7.9 + x.9.7  = 0
 c65#65:   x.7.10 + x.10.7  = 1
 c66#66:   x.7.11 + x.11.7  = 0
 c67#67:   x.7.12 + x.12.7  = 0
 c68#68:   x.8.9 + x.9.8  = 0
 c69#69:   x.8.10 + x.10.8  = 0
 c70#70:   x.8.11 + x.11.8  = 0
 c71#71:   x.8.12 + x.12.8  = 0
 c72#72:   x.9.10 + x.10.9  = 1
 c73#73:   x.9.11 + x.11.9  = 0
 c74#74:   x.9.12 + x.12.9  = 0
 c75#75:   x.10.11 + x.11.10  = 0
 c76#76:   x.10.12 + x.12.10  = 0
 c77#77:   x.11.12 + x.12.11  = 0
 d0#78:    - y.0.1 + x.0.2 + x.0.3 + x.0.4 + x.0.5 + x.0.6 + x.0.7 + x.0.8
           + x.0.9 + x.0.10 + x.0.11 + x.0.12 <= 1
 d1#79:    x.0.1 - y.0.2 + x.0.3 + x.0.4 + x.0.5 + x.0.6 + x.0.7 + x.0.8
           + x.0.9 + x.0.10 + x.0.11 + x.0.12 <= 1
 d2#80:    x.0.1 + x.0.2 - y.0.3 + x.0.4 + x.0.5 + x.0.6 + x.0.7 + x.0.8
           + x.0.9 + x.0.10 + x.0.11 + x.0.12 <= 1
 d3#81:    x.0.1 + x.0.2 + x.0.3 - y.0.4 + x.0.5 + x.0.6 + x.0.7 + x.0.8
           + x.0.9 + x.0.10 + x.0.11 + x.0.12 <= 1
 d4#82:    x.0.1 + x.0.2 + x.0.3 + x.0.4 - y.0.5 + x.0.6 + x.0.7 + x.0.8
           + x.0.9 + x.0.10 + x.0.11 + x.0.12 <= 1
 d5#83:    x.0.1 + x.0.2 + x.0.3 + x.0.4 + x.0.5 - y.0.6 + x.0.7 + x.0.8
           + x.0.9 + x.0.10 + x.0.11 + x.0.12 <= 1
 d6#84:    x.0.1 + x.0.2 + x.0.3 + x.0.4 + x.0.5 + x.0.6 - y.0.7 + x.0.8
           + x.0.9 + x.0.10 + x.0.11 + x.0.12 <= 1
 d7#85:    x.0.1 + x.0.2 + x.0.3 + x.0.4 + x.0.5 + x.0.6 + x.0.7 - y.0.8
           + x.0.9 + x.0.10 + x.0.11 + x.0.12 <= 1
 d8#86:    x.0.1 + x.0.2 + x.0.3 + x.0.4 + x.0.5 + x.0.6 + x.0.7 + x.0.8
           - y.0.9 + x.0.10 + x.0.11 + x.0.12 <= 1
 d9#87:    x.0.1 + x.0.2 + x.0.3 + x.0.4 + x.0.5 + x.0.6 + x.0.7 + x.0.8
           + x.0.9 - y.0.10 + x.0.11 + x.0.12 <= 0
 d10#88:   x.0.1 + x.0.2 + x.0.3 + x.0.4 + x.0.5 + x.0.6 + x.0.7 + x.0.8
           + x.0.9 + x.0.10 - y.0.11 + x.0.12 <= 1
 d11#89:   x.0.1 + x.0.2 + x.0.3 + x.0.4 + x.0.5 + x.0.6 + x.0.7 + x.0.8
           + x.0.9 + x.0.10 + x.0.11 - y.0.12 <= 1
 d12#90:   x.1.0 - y.1.2 + x.1.3 + x.1.4 + x.1.5 + x.1.6 + x.1.7 + x.1.8
           + x.1.9 + x.1.10 + x.1.11 + x.1.12 <= 0
 d13#91:   x.1.0 + x.1.2 - y.1.3 + x.1.4 + x.1.5 + x.1.6 + x.1.7 + x.1.8
           + x.1.9 + x.1.10 + x.1.11 + x.1.12 <= 1
 d14#92:   x.1.0 + x.1.2 + x.1.3 - y.1.4 + x.1.5 + x.1.6 + x.1.7 + x.1.8
           + x.1.9 + x.1.10 + x.1.11 + x.1.12 <= 1
 d15#93:   x.1.0 + x.1.2 + x.1.3 + x.1.4 - y.1.5 + x.1.6 + x.1.7 + x.1.8
           + x.1.9 + x.1.10 + x.1.11 + x.1.12 <= 1
 d16#94:   x.1.0 + x.1.2 + x.1.3 + x.1.4 + x.1.5 - y.1.6 + x.1.7 + x.1.8
           + x.1.9 + x.1.10 + x.1.11 + x.1.12 <= 1
 d17#95:   x.1.0 + x.1.2 + x.1.3 + x.1.4 + x.1.5 + x.1.6 - y.1.7 + x.1.8
           + x.1.9 + x.1.10 + x.1.11 + x.1.12 <= 1
 d18#96:   x.1.0 + x.1.2 + x.1.3 + x.1.4 + x.1.5 + x.1.6 + x.1.7 - y.1.8
           + x.1.9 + x.1.10 + x.1.11 + x.1.12 <= 1
 d19#97:   x.1.0 + x.1.2 + x.1.3 + x.1.4 + x.1.5 + x.1.6 + x.1.7 + x.1.8
           - y.1.9 + x.1.10 + x.1.11 + x.1.12 <= 1
 d20#98:   x.1.0 + x.1.2 + x.1.3 + x.1.4 + x.1.5 + x.1.6 + x.1.7 + x.1.8
           + x.1.9 - y.1.10 + x.1.11 + x.1.12 <= 1
 d21#99:   x.1.0 + x.1.2 + x.1.3 + x.1.4 + x.1.5 + x.1.6 + x.1.7 + x.1.8
           + x.1.9 + x.1.10 - y.1.11 + x.1.12 <= 1
 d22#100:  x.1.0 + x.1.2 + x.1.3 + x.1.4 + x.1.5 + x.1.6 + x.1.7 + x.1.8
           + x.1.9 + x.1.10 + x.1.11 - y.1.12 <= 1
 d23#101:  x.2.0 + x.2.1 - y.2.3 + x.2.4 + x.2.5 + x.2.6 + x.2.7 + x.2.8
           + x.2.9 + x.2.10 + x.2.11 + x.2.12 <= 0
 d24#102:  x.2.0 + x.2.1 + x.2.3 - y.2.4 + x.2.5 + x.2.6 + x.2.7 + x.2.8
           + x.2.9 + x.2.10 + x.2.11 + x.2.12 <= 0
 d25#103:  x.2.0 + x.2.1 + x.2.3 + x.2.4 - y.2.5 + x.2.6 + x.2.7 + x.2.8
           + x.2.9 + x.2.10 + x.2.11 + x.2.12 <= 1
 d26#104:  x.2.0 + x.2.1 + x.2.3 + x.2.4 + x.2.5 - y.2.6 + x.2.7 + x.2.8
           + x.2.9 + x.2.10 + x.2.11 + x.2.12 <= 0
 d27#105:  x.2.0 + x.2.1 + x.2.3 + x.2.4 + x.2.5 + x.2.6 - y.2.7 + x.2.8
           + x.2.9 + x.2.10 + x.2.11 + x.2.12 <= 1
 d28#106:  x.2.0 + x.2.1 + x.2.3 + x.2.4 + x.2.5 + x.2.6 + x.2.7 - y.2.8
           + x.2.9 + x.2.10 + x.2.11 + x.2.12 <= 0
 d29#107:  x.2.0 + x.2.1 + x.2.3 + x.2.4 + x.2.5 + x.2.6 + x.2.7 + x.2.8
           - y.2.9 + x.2.10 + x.2.11 + x.2.12 <= 1
 d30#108:  x.2.0 + x.2.1 + x.2.3 + x.2.4 + x.2.5 + x.2.6 + x.2.7 + x.2.8
           + x.2.9 - y.2.10 + x.2.11 + x.2.12 <= 1
 d31#109:  x.2.0 + x.2.1 + x.2.3 + x.2.4 + x.2.5 + x.2.6 + x.2.7 + x.2.8
           + x.2.9 + x.2.10 - y.2.11 + x.2.12 <= 0
 d32#110:  x.2.0 + x.2.1 + x.2.3 + x.2.4 + x.2.5 + x.2.6 + x.2.7 + x.2.8
           + x.2.9 + x.2.10 + x.2.11 - y.2.12 <= 0
 d33#111:  x.3.0 + x.3.1 + x.3.2 - y.3.4 + x.3.5 + x.3.6 + x.3.7 + x.3.8
           + x.3.9 + x.3.10 + x.3.11 + x.3.12 <= 1
 d34#112:  x.3.0 + x.3.1 + x.3.2 + x.3.4 - y.3.5 + x.3.6 + x.3.7 + x.3.8
           + x.3.9 + x.3.10 + x.3.11 + x.3.12 <= 1
 d35#113:  x.3.0 + x.3.1 + x.3.2 + x.3.4 + x.3.5 - y.3.6 + x.3.7 + x.3.8
           + x.3.9 + x.3.10 + x.3.11 + x.3.12 <= 1
 d36#114:  x.3.0 + x.3.1 + x.3.2 + x.3.4 + x.3.5 + x.3.6 - y.3.7 + x.3.8
           + x.3.9 + x.3.10 + x.3.11 + x.3.12 <= 1
 d37#115:  x.3.0 + x.3.1 + x.3.2 + x.3.4 + x.3.5 + x.3.6 + x.3.7 - y.3.8
           + x.3.9 + x.3.10 + x.3.11 + x.3.12 <= 1
 d38#116:  x.3.0 + x.3.1 + x.3.2 + x.3.4 + x.3.5 + x.3.6 + x.3.7 + x.3.8
           - y.3.9 + x.3.10 + x.3.11 + x.3.12 <= 1
 d39#117:  x.3.0 + x.3.1 + x.3.2 + x.3.4 + x.3.5 + x.3.6 + x.3.7 + x.3.8
           + x.3.9 - y.3.10 + x.3.11 + x.3.12 <= 1
 d40#118:  x.3.0 + x.3.1 + x.3.2 + x.3.4 + x.3.5 + x.3.6 + x.3.7 + x.3.8
           + x.3.9 + x.3.10 - y.3.11 + x.3.12 <= 1
 d41#119:  x.3.0 + x.3.1 + x.3.2 + x.3.4 + x.3.5 + x.3.6 + x.3.7 + x.3.8
           + x.3.9 + x.3.10 + x.3.11 - y.3.12 <= 1
 d42#120:  x.4.0 + x.4.1 + x.4.2 + x.4.3 - y.4.5 + x.4.6 + x.4.7 + x.4.8
           + x.4.9 + x.4.10 + x.4.11 + x.4.12 <= 1
 d43#121:  x.4.0 + x.4.1 + x.4.2 + x.4.3 + x.4.5 - y.4.6 + x.4.7 + x.4.8
           + x.4.9 + x.4.10 + x.4.11 + x.4.12 <= 1
 d44#122:  x.4.0 + x.4.1 + x.4.2 + x.4.3 + x.4.5 + x.4.6 - y.4.7 + x.4.8
           + x.4.9 + x.4.10 + x.4.11 + x.4.12 <= 1
 d45#123:  x.4.0 + x.4.1 + x.4.2 + x.4.3 + x.4.5 + x.4.6 + x.4.7 - y.4.8
           + x.4.9 + x.4.10 + x.4.11 + x.4.12 <= 1
 d46#124:  x.4.0 + x.4.1 + x.4.2 + x.4.3 + x.4.5 + x.4.6 + x.4.7 + x.4.8
           - y.4.9 + x.4.10 + x.4.11 + x.4.12 <= 1
 d47#125:  x.4.0 + x.4.1 + x.4.2 + x.4.3 + x.4.5 + x.4.6 + x.4.7 + x.4.8
           + x.4.9 - y.4.10 + x.4.11 + x.4.12 <= 1
 d48#126:  x.4.0 + x.4.1 + x.4.2 + x.4.3 + x.4.5 + x.4.6 + x.4.7 + x.4.8
           + x.4.9 + x.4.10 - y.4.11 + x.4.12 <= 1
 d49#127:  x.4.0 + x.4.1 + x.4.2 + x.4.3 + x.4.5 + x.4.6 + x.4.7 + x.4.8
           + x.4.9 + x.4.10 + x.4.11 - y.4.12 <= 1
 d50#128:  x.5.0 + x.5.1 + x.5.2 + x.5.3 + x.5.4 - y.5.6 + x.5.7 + x.5.8
           + x.5.9 + x.5.10 + x.5.11 + x.5.12 <= 1
 d51#129:  x.5.0 + x.5.1 + x.5.2 + x.5.3 + x.5.4 + x.5.6 - y.5.7 + x.5.8
           + x.5.9 + x.5.10 + x.5.11 + x.5.12 <= 1
 d52#130:  x.5.0 + x.5.1 + x.5.2 + x.5.3 + x.5.4 + x.5.6 + x.5.7 - y.5.8
           + x.5.9 + x.5.10 + x.5.11 + x.5.12 <= 1
 d53#131:  x.5.0 + x.5.1 + x.5.2 + x.5.3 + x.5.4 + x.5.6 + x.5.7 + x.5.8
           - y.5.9 + x.5.10 + x.5.11 + x.5.12 <= 1
 d54#132:  x.5.0 + x.5.1 + x.5.2 + x.5.3 + x.5.4 + x.5.6 + x.5.7 + x.5.8
           + x.5.9 - y.5.10 + x.5.11 + x.5.12 <= 0
 d55#133:  x.5.0 + x.5.1 + x.5.2 + x.5.3 + x.5.4 + x.5.6 + x.5.7 + x.5.8
           + x.5.9 + x.5.10 - y.5.11 + x.5.12 <= 1
 d56#134:  x.5.0 + x.5.1 + x.5.2 + x.5.3 + x.5.4 + x.5.6 + x.5.7 + x.5.8
           + x.5.9 + x.5.10 + x.5.11 - y.5.12 <= 1
 d57#135:  x.6.0 + x.6.1 + x.6.2 + x.6.3 + x.6.4 + x.6.5 - y.6.7 + x.6.8
           + x.6.9 + x.6.10 + x.6.11 + x.6.12 <= 1
 d58#136:  x.6.0 + x.6.1 + x.6.2 + x.6.3 + x.6.4 + x.6.5 + x.6.7 - y.6.8
           + x.6.9 + x.6.10 + x.6.11 + x.6.12 <= 1
 d59#137:  x.6.0 + x.6.1 + x.6.2 + x.6.3 + x.6.4 + x.6.5 + x.6.7 + x.6.8
           - y.6.9 + x.6.10 + x.6.11 + x.6.12 <= 1
 d60#138:  x.6.0 + x.6.1 + x.6.2 + x.6.3 + x.6.4 + x.6.5 + x.6.7 + x.6.8
           + x.6.9 - y.6.10 + x.6.11 + x.6.12 <= 1
 d61#139:  x.6.0 + x.6.1 + x.6.2 + x.6.3 + x.6.4 + x.6.5 + x.6.7 + x.6.8
           + x.6.9 + x.6.10 - y.6.11 + x.6.12 <= 1
 d62#140:  x.6.0 + x.6.1 + x.6.2 + x.6.3 + x.6.4 + x.6.5 + x.6.7 + x.6.8
           + x.6.9 + x.6.10 + x.6.11 - y.6.12 <= 1
 d63#141:  x.7.0 + x.7.1 + x.7.2 + x.7.3 + x.7.4 + x.7.5 + x.7.6 - y.7.8
           + x.7.9 + x.7.10 + x.7.11 + x.7.12 <= 1
 d64#142:  x.7.0 + x.7.1 + x.7.2 + x.7.3 + x.7.4 + x.7.5 + x.7.6 + x.7.8
           - y.7.9 + x.7.10 + x.7.11 + x.7.12 <= 1
 d65#143:  x.7.0 + x.7.1 + x.7.2 + x.7.3 + x.7.4 + x.7.5 + x.7.6 + x.7.8
           + x.7.9 - y.7.10 + x.7.11 + x.7.12 <= 0
 d66#144:  x.7.0 + x.7.1 + x.7.2 + x.7.3 + x.7.4 + x.7.5 + x.7.6 + x.7.8
           + x.7.9 + x.7.10 - y.7.11 + x.7.12 <= 1
 d67#145:  x.7.0 + x.7.1 + x.7.2 + x.7.3 + x.7.4 + x.7.5 + x.7.6 + x.7.8
           + x.7.9 + x.7.10 + x.7.11 - y.7.12 <= 1
 d68#146:  x.8.0 + x.8.1 + x.8.2 + x.8.3 + x.8.4 + x.8.5 + x.8.6 + x.8.7
           - y.8.9 + x.8.10 + x.8.11 + x.8.12 <= 1
 d69#147:  x.8.0 + x.8.1 + x.8.2 + x.8.3 + x.8.4 + x.8.5 + x.8.6 + x.8.7
           + x.8.9 - y.8.10 + x.8.11 + x.8.12 <= 1
 d70#148:  x.8.0 + x.8.1 + x.8.2 + x.8.3 + x.8.4 + x.8.5 + x.8.6 + x.8.7
           + x.8.9 + x.8.10 - y.8.11 + x.8.12 <= 1
 d71#149:  x.8.0 + x.8.1 + x.8.2 + x.8.3 + x.8.4 + x.8.5 + x.8.6 + x.8.7
           + x.8.9 + x.8.10 + x.8.11 - y.8.12 <= 1
 d72#150:  x.9.0 + x.9.1 + x.9.2 + x.9.3 + x.9.4 + x.9.5 + x.9.6 + x.9.7
           + x.9.8 - y.9.10 + x.9.11 + x.9.12 <= 0
 d73#151:  x.9.0 + x.9.1 + x.9.2 + x.9.3 + x.9.4 + x.9.5 + x.9.6 + x.9.7
           + x.9.8 + x.9.10 - y.9.11 + x.9.12 <= 1
 d74#152:  x.9.0 + x.9.1 + x.9.2 + x.9.3 + x.9.4 + x.9.5 + x.9.6 + x.9.7
           + x.9.8 + x.9.10 + x.9.11 - y.9.12 <= 1
 d75#153:  x.10.0 + x.10.1 + x.10.2 + x.10.3 + x.10.4 + x.10.5 + x.10.6
           + x.10.7 + x.10.8 + x.10.9 - y.10.11 + x.10.12 <= 1
 d76#154:  x.10.0 + x.10.1 + x.10.2 + x.10.3 + x.10.4 + x.10.5 + x.10.6
           + x.10.7 + x.10.8 + x.10.9 + x.10.11 - y.10.12 <= 1
 d77#155:  x.11.0 + x.11.1 + x.11.2 + x.11.3 + x.11.4 + x.11.5 + x.11.6
           + x.11.7 + x.11.8 + x.11.9 + x.11.10 - y.11.12 <= 1
 _e0#156:  - y.0.1 + x.1.2 + x.1.3 + x.1.4 + x.1.5 + x.1.6 + x.1.7 + x.1.8
           + x.1.9 + x.1.10 + x.1.11 + x.1.12 <= 1
 _e1#157:  - y.0.2 + x.2.1 + x.2.3 + x.2.4 + x.2.5 + x.2.6 + x.2.7 + x.2.8
           + x.2.9 + x.2.10 + x.2.11 + x.2.12 <= 1
 _e2#158:  - y.0.3 + x.3.1 + x.3.2 + x.3.4 + x.3.5 + x.3.6 + x.3.7 + x.3.8
           + x.3.9 + x.3.10 + x.3.11 + x.3.12 <= 1
 _e3#159:  - y.0.4 + x.4.1 + x.4.2 + x.4.3 + x.4.5 + x.4.6 + x.4.7 + x.4.8
           + x.4.9 + x.4.10 + x.4.11 + x.4.12 <= 1
 _e4#160:  - y.0.5 + x.5.1 + x.5.2 + x.5.3 + x.5.4 + x.5.6 + x.5.7 + x.5.8
           + x.5.9 + x.5.10 + x.5.11 + x.5.12 <= 1
 _e5#161:  - y.0.6 + x.6.1 + x.6.2 + x.6.3 + x.6.4 + x.6.5 + x.6.7 + x.6.8
           + x.6.9 + x.6.10 + x.6.11 + x.6.12 <= 1
 _e6#162:  - y.0.7 + x.7.1 + x.7.2 + x.7.3 + x.7.4 + x.7.5 + x.7.6 + x.7.8
           + x.7.9 + x.7.10 + x.7.11 + x.7.12 <= 1
 _e7#163:  - y.0.8 + x.8.1 + x.8.2 + x.8.3 + x.8.4 + x.8.5 + x.8.6 + x.8.7
           + x.8.9 + x.8.10 + x.8.11 + x.8.12 <= 1
 _e8#164:  - y.0.9 + x.9.1 + x.9.2 + x.9.3 + x.9.4 + x.9.5 + x.9.6 + x.9.7
           + x.9.8 + x.9.10 + x.9.11 + x.9.12 <= 1
 _e9#165:  - y.0.10 + x.10.1 + x.10.2 + x.10.3 + x.10.4 + x.10.5 + x.10.6
           + x.10.7 + x.10.8 + x.10.9 + x.10.11 + x.10.12 <= 0
 _e10#166: - y.0.11 + x.11.1 + x.11.2 + x.11.3 + x.11.4 + x.11.5 + x.11.6
           + x.11.7 + x.11.8 + x.11.9 + x.11.10 + x.11.12 <= 1
 _e11#167: - y.0.12 + x.12.1 + x.12.2 + x.12.3 + x.12.4 + x.12.5 + x.12.6
           + x.12.7 + x.12.8 + x.12.9 + x.12.10 + x.12.11 <= 1
 _e12#168: x.2.0 - y.1.2 + x.2.3 + x.2.4 + x.2.5 + x.2.6 + x.2.7 + x.2.8
           + x.2.9 + x.2.10 + x.2.11 + x.2.12 <= 0
 _e13#169: x.3.0 - y.1.3 + x.3.2 + x.3.4 + x.3.5 + x.3.6 + x.3.7 + x.3.8
           + x.3.9 + x.3.10 + x.3.11 + x.3.12 <= 1
 _e14#170: x.4.0 - y.1.4 + x.4.2 + x.4.3 + x.4.5 + x.4.6 + x.4.7 + x.4.8
           + x.4.9 + x.4.10 + x.4.11 + x.4.12 <= 1
 _e15#171: x.5.0 - y.1.5 + x.5.2 + x.5.3 + x.5.4 + x.5.6 + x.5.7 + x.5.8
           + x.5.9 + x.5.10 + x.5.11 + x.5.12 <= 1
 _e16#172: x.6.0 - y.1.6 + x.6.2 + x.6.3 + x.6.4 + x.6.5 + x.6.7 + x.6.8
           + x.6.9 + x.6.10 + x.6.11 + x.6.12 <= 1
 _e17#173: x.7.0 - y.1.7 + x.7.2 + x.7.3 + x.7.4 + x.7.5 + x.7.6 + x.7.8
           + x.7.9 + x.7.10 + x.7.11 + x.7.12 <= 1
 _e18#174: x.8.0 - y.1.8 + x.8.2 + x.8.3 + x.8.4 + x.8.5 + x.8.6 + x.8.7
           + x.8.9 + x.8.10 + x.8.11 + x.8.12 <= 1
 _e19#175: x.9.0 - y.1.9 + x.9.2 + x.9.3 + x.9.4 + x.9.5 + x.9.6 + x.9.7
           + x.9.8 + x.9.10 + x.9.11 + x.9.12 <= 1
 _e20#176: x.10.0 - y.1.10 + x.10.2 + x.10.3 + x.10.4 + x.10.5 + x.10.6
           + x.10.7 + x.10.8 + x.10.9 + x.10.11 + x.10.12 <= 1
 _e21#177: x.11.0 - y.1.11 + x.11.2 + x.11.3 + x.11.4 + x.11.5 + x.11.6
           + x.11.7 + x.11.8 + x.11.9 + x.11.10 + x.11.12 <= 1
 _e22#178: x.12.0 - y.1.12 + x.12.2 + x.12.3 + x.12.4 + x.12.5 + x.12.6
           + x.12.7 + x.12.8 + x.12.9 + x.12.10 + x.12.11 <= 1
 _e23#179: x.3.0 + x.3.1 - y.2.3 + x.3.4 + x.3.5 + x.3.6 + x.3.7 + x.3.8
           + x.3.9 + x.3.10 + x.3.11 + x.3.12 <= 0
 _e24#180: x.4.0 + x.4.1 - y.2.4 + x.4.3 + x.4.5 + x.4.6 + x.4.7 + x.4.8
           + x.4.9 + x.4.10 + x.4.11 + x.4.12 <= 0
 _e25#181: x.5.0 + x.5.1 - y.2.5 + x.5.3 + x.5.4 + x.5.6 + x.5.7 + x.5.8
           + x.5.9 + x.5.10 + x.5.11 + x.5.12 <= 1
 _e26#182: x.6.0 + x.6.1 - y.2.6 + x.6.3 + x.6.4 + x.6.5 + x.6.7 + x.6.8
           + x.6.9 + x.6.10 + x.6.11 + x.6.12 <= 0
 _e27#183: x.7.0 + x.7.1 - y.2.7 + x.7.3 + x.7.4 + x.7.5 + x.7.6 + x.7.8
           + x.7.9 + x.7.10 + x.7.11 + x.7.12 <= 1
 _e28#184: x.8.0 + x.8.1 - y.2.8 + x.8.3 + x.8.4 + x.8.5 + x.8.6 + x.8.7
           + x.8.9 + x.8.10 + x.8.11 + x.8.12 <= 0
 _e29#185: x.9.0 + x.9.1 - y.2.9 + x.9.3 + x.9.4 + x.9.5 + x.9.6 + x.9.7
           + x.9.8 + x.9.10 + x.9.11 + x.9.12 <= 1
 _e30#186: x.10.0 + x.10.1 - y.2.10 + x.10.3 + x.10.4 + x.10.5 + x.10.6
           + x.10.7 + x.10.8 + x.10.9 + x.10.11 + x.10.12 <= 1
 _e31#187: x.11.0 + x.11.1 - y.2.11 + x.11.3 + x.11.4 + x.11.5 + x.11.6
           + x.11.7 + x.11.8 + x.11.9 + x.11.10 + x.11.12 <= 0
 _e32#188: x.12.0 + x.12.1 - y.2.12 + x.12.3 + x.12.4 + x.12.5 + x.12.6
           + x.12.7 + x.12.8 + x.12.9 + x.12.10 + x.12.11 <= 0
 _e33#189: x.4.0 + x.4.1 + x.4.2 - y.3.4 + x.4.5 + x.4.6 + x.4.7 + x.4.8
           + x.4.9 + x.4.10 + x.4.11 + x.4.12 <= 1
 _e34#190: x.5.0 + x.5.1 + x.5.2 - y.3.5 + x.5.4 + x.5.6 + x.5.7 + x.5.8
           + x.5.9 + x.5.10 + x.5.11 + x.5.12 <= 1
 _e35#191: x.6.0 + x.6.1 + x.6.2 - y.3.6 + x.6.4 + x.6.5 + x.6.7 + x.6.8
           + x.6.9 + x.6.10 + x.6.11 + x.6.12 <= 1
 _e36#192: x.7.0 + x.7.1 + x.7.2 - y.3.7 + x.7.4 + x.7.5 + x.7.6 + x.7.8
           + x.7.9 + x.7.10 + x.7.11 + x.7.12 <= 1
 _e37#193: x.8.0 + x.8.1 + x.8.2 - y.3.8 + x.8.4 + x.8.5 + x.8.6 + x.8.7
           + x.8.9 + x.8.10 + x.8.11 + x.8.12 <= 1
 _e38#194: x.9.0 + x.9.1 + x.9.2 - y.3.9 + x.9.4 + x.9.5 + x.9.6 + x.9.7
           + x.9.8 + x.9.10 + x.9.11 + x.9.12 <= 1
 _e39#195: x.10.0 + x.10.1 + x.10.2 - y.3.10 + x.10.4 + x.10.5 + x.10.6
           + x.10.7 + x.10.8 + x.10.9 + x.10.11 + x.10.12 <= 1
 _e40#196: x.11.0 + x.11.1 + x.11.2 - y.3.11 + x.11.4 + x.11.5 + x.11.6
           + x.11.7 + x.11.8 + x.11.9 + x.11.10 + x.11.12 <= 1
 _e41#197: x.12.0 + x.12.1 + x.12.2 - y.3.12 + x.12.4 + x.12.5 + x.12.6
           + x.12.7 + x.12.8 + x.12.9 + x.12.10 + x.12.11 <= 1
 _e42#198: x.5.0 + x.5.1 + x.5.2 + x.5.3 - y.4.5 + x.5.6 + x.5.7 + x.5.8
           + x.5.9 + x.5.10 + x.5.11 + x.5.12 <= 1
 _e43#199: x.6.0 + x.6.1 + x.6.2 + x.6.3 - y.4.6 + x.6.5 + x.6.7 + x.6.8
           + x.6.9 + x.6.10 + x.6.11 + x.6.12 <= 1
 _e44#200: x.7.0 + x.7.1 + x.7.2 + x.7.3 - y.4.7 + x.7.5 + x.7.6 + x.7.8
           + x.7.9 + x.7.10 + x.7.11 + x.7.12 <= 1
 _e45#201: x.8.0 + x.8.1 + x.8.2 + x.8.3 - y.4.8 + x.8.5 + x.8.6 + x.8.7
           + x.8.9 + x.8.10 + x.8.11 + x.8.12 <= 1
 _e46#202: x.9.0 + x.9.1 + x.9.2 + x.9.3 - y.4.9 + x.9.5 + x.9.6 + x.9.7
           + x.9.8 + x.9.10 + x.9.11 + x.9.12 <= 1
 _e47#203: x.10.0 + x.10.1 + x.10.2 + x.10.3 - y.4.10 + x.10.5 + x.10.6
           + x.10.7 + x.10.8 + x.10.9 + x.10.11 + x.10.12 <= 1
 _e48#204: x.11.0 + x.11.1 + x.11.2 + x.11.3 - y.4.11 + x.11.5 + x.11.6
           + x.11.7 + x.11.8 + x.11.9 + x.11.10 + x.11.12 <= 1
 _e49#205: x.12.0 + x.12.1 + x.12.2 + x.12.3 - y.4.12 + x.12.5 + x.12.6
           + x.12.7 + x.12.8 + x.12.9 + x.12.10 + x.12.11 <= 1
 _e50#206: x.6.0 + x.6.1 + x.6.2 + x.6.3 + x.6.4 - y.5.6 + x.6.7 + x.6.8
           + x.6.9 + x.6.10 + x.6.11 + x.6.12 <= 1
 _e51#207: x.7.0 + x.7.1 + x.7.2 + x.7.3 + x.7.4 - y.5.7 + x.7.6 + x.7.8
           + x.7.9 + x.7.10 + x.7.11 + x.7.12 <= 1
 _e52#208: x.8.0 + x.8.1 + x.8.2 + x.8.3 + x.8.4 - y.5.8 + x.8.6 + x.8.7
           + x.8.9 + x.8.10 + x.8.11 + x.8.12 <= 1
 _e53#209: x.9.0 + x.9.1 + x.9.2 + x.9.3 + x.9.4 - y.5.9 + x.9.6 + x.9.7
           + x.9.8 + x.9.10 + x.9.11 + x.9.12 <= 1
 _e54#210: x.10.0 + x.10.1 + x.10.2 + x.10.3 + x.10.4 - y.5.10 + x.10.6
           + x.10.7 + x.10.8 + x.10.9 + x.10.11 + x.10.12 <= 0
 _e55#211: x.11.0 + x.11.1 + x.11.2 + x.11.3 + x.11.4 - y.5.11 + x.11.6
           + x.11.7 + x.11.8 + x.11.9 + x.11.10 + x.11.12 <= 1
 _e56#212: x.12.0 + x.12.1 + x.12.2 + x.12.3 + x.12.4 - y.5.12 + x.12.6
           + x.12.7 + x.12.8 + x.12.9 + x.12.10 + x.12.11 <= 1
 _e57#213: x.7.0 + x.7.1 + x.7.2 + x.7.3 + x.7.4 + x.7.5 - y.6.7 + x.7.8
           + x.7.9 + x.7.10 + x.7.11 + x.7.12 <= 1
 _e58#214: x.8.0 + x.8.1 + x.8.2 + x.8.3 + x.8.4 + x.8.5 - y.6.8 + x.8.7
           + x.8.9 + x.8.10 + x.8.11 + x.8.12 <= 1
 _e59#215: x.9.0 + x.9.1 + x.9.2 + x.9.3 + x.9.4 + x.9.5 - y.6.9 + x.9.7
           + x.9.8 + x.9.10 + x.9.11 + x.9.12 <= 1
 _e60#216: x.10.0 + x.10.1 + x.10.2 + x.10.3 + x.10.4 + x.10.5 - y.6.10
           + x.10.7 + x.10.8 + x.10.9 + x.10.11 + x.10.12 <= 1
 _e61#217: x.11.0 + x.11.1 + x.11.2 + x.11.3 + x.11.4 + x.11.5 - y.6.11
           + x.11.7 + x.11.8 + x.11.9 + x.11.10 + x.11.12 <= 1
 _e62#218: x.12.0 + x.12.1 + x.12.2 + x.12.3 + x.12.4 + x.12.5 - y.6.12
           + x.12.7 + x.12.8 + x.12.9 + x.12.10 + x.12.11 <= 1
 _e63#219: x.8.0 + x.8.1 + x.8.2 + x.8.3 + x.8.4 + x.8.5 + x.8.6 - y.7.8
           + x.8.9 + x.8.10 + x.8.11 + x.8.12 <= 1
 _e64#220: x.9.0 + x.9.1 + x.9.2 + x.9.3 + x.9.4 + x.9.5 + x.9.6 - y.7.9
           + x.9.8 + x.9.10 + x.9.11 + x.9.12 <= 1
 _e65#221: x.10.0 + x.10.1 + x.10.2 + x.10.3 + x.10.4 + x.10.5 + x.10.6
           - y.7.10 + x.10.8 + x.10.9 + x.10.11 + x.10.12 <= 0
 _e66#222: x.11.0 + x.11.1 + x.11.2 + x.11.3 + x.11.4 + x.11.5 + x.11.6
           - y.7.11 + x.11.8 + x.11.9 + x.11.10 + x.11.12 <= 1
 _e67#223: x.12.0 + x.12.1 + x.12.2 + x.12.3 + x.12.4 + x.12.5 + x.12.6
           - y.7.12 + x.12.8 + x.12.9 + x.12.10 + x.12.11 <= 1
 _e68#224: x.9.0 + x.9.1 + x.9.2 + x.9.3 + x.9.4 + x.9.5 + x.9.6 + x.9.7
           - y.8.9 + x.9.10 + x.9.11 + x.9.12 <= 1
 _e69#225: x.10.0 + x.10.1 + x.10.2 + x.10.3 + x.10.4 + x.10.5 + x.10.6
           + x.10.7 - y.8.10 + x.10.9 + x.10.11 + x.10.12 <= 1
 _e70#226: x.11.0 + x.11.1 + x.11.2 + x.11.3 + x.11.4 + x.11.5 + x.11.6
           + x.11.7 - y.8.11 + x.11.9 + x.11.10 + x.11.12 <= 1
 _e71#227: x.12.0 + x.12.1 + x.12.2 + x.12.3 + x.12.4 + x.12.5 + x.12.6
           + x.12.7 - y.8.12 + x.12.9 + x.12.10 + x.12.11 <= 1
 _e72#228: x.10.0 + x.10.1 + x.10.2 + x.10.3 + x.10.4 + x.10.5 + x.10.6
           + x.10.7 + x.10.8 - y.9.10 + x.10.11 + x.10.12 <= 0
 _e73#229: x.11.0 + x.11.1 + x.11.2 + x.11.3 + x.11.4 + x.11.5 + x.11.6
           + x.11.7 + x.11.8 - y.9.11 + x.11.10 + x.11.12 <= 1
 _e74#230: x.12.0 + x.12.1 + x.12.2 + x.12.3 + x.12.4 + x.12.5 + x.12.6
           + x.12.7 + x.12.8 - y.9.12 + x.12.10 + x.12.11 <= 1
 _e75#231: x.11.0 + x.11.1 + x.11.2 + x.11.3 + x.11.4 + x.11.5 + x.11.6
           + x.11.7 + x.11.8 + x.11.9 - y.10.11 + x.11.12 <= 1
 _e76#232: x.12.0 + x.12.1 + x.12.2 + x.12.3 + x.12.4 + x.12.5 + x.12.6
           + x.12.7 + x.12.8 + x.12.9 - y.10.12 + x.12.11 <= 1
 _e77#233: x.12.0 + x.12.1 + x.12.2 + x.12.3 + x.12.4 + x.12.5 + x.12.6
           + x.12.7 + x.12.8 + x.12.9 + x.12.10 - y.11.12 <= 1
End
